db/data/23786108822805621747168849863554917155.z3.out
-------------------
2500.409490555
